% File represents an instance of a Composite Structure problem to be solved by a CP framework
% Created on 2025-03-26 10:42:17.382
T = 50;
n = 36;
m = 60;
edges = [(1, 2),
(7, 8),
(13, 14),
(19, 20),
(25, 26),
(31, 32),
(2, 3),
(8, 9),
(15, 14),
(21, 20),
(27, 26),
(33, 32),
(4, 3),
(10, 9),
(15, 16),
(21, 22),
(27, 28),
(33, 34),
(4, 5),
(10, 11),
(17, 16),
(23, 22),
(29, 28),
(35, 34),
(5, 6),
(11, 12),
(17, 18),
(23, 24),
(29, 30),
(36, 35),
(7, 1),
(7, 13),
(13, 19),
(19, 25),
(25, 31),
(8, 2),
(8, 14),
(14, 20),
(20, 26),
(26, 32),
(9, 3),
(15, 9),
(15, 21),
(21, 27),
(27, 33),
(10, 4),
(10, 16),
(16, 22),
(22, 28),
(28, 34),
(11, 5),
(17, 11),
(17, 23),
(23, 29),
(29, 35),
(12, 6),
(18, 12),
(18, 24),
(24, 30),
(30, 36)];
counts = [|8, 16, 8, 12,
|8, 14, 8, 8,
|8, 14, 8, 6,
|8, 16, 8, 6,
|8, 12, 8, 6,
|6, 12, 6, 4,
|10, 16, 10, 14,
|8, 14, 8, 14,
|8, 14, 8, 8,
|8, 18, 8, 8,
|8, 16, 8, 8,
|6, 14, 6, 8,
|10, 12, 10, 12,
|8, 10, 8, 12,
|8, 14, 8, 12,
|8, 14, 8, 8,
|8, 18, 8, 8,
|8, 14, 8, 8,
|10, 12, 10, 6,
|8, 10, 8, 6,
|8, 14, 8, 6,
|8, 14, 8, 2,
|8, 18, 8, 4,
|8, 14, 8, 2,
|8, 12, 8, 6,
|8, 10, 8, 2,
|8, 12, 8, 2,
|8, 10, 8, 2,
|8, 14, 8, 2,
|8, 12, 8, 2,
|8, 6, 8, 6,
|8, 4, 8, 2,
|8, 6, 8, 2,
|8, 4, 8, 2,
|8, 8, 8, 2,
|8, 10, 8, 2|];
